res/heu/pdp_100_mem_1.0/1.0_1.0/lrc101.txt
Vehicle 0
0 45 7 60 98 5 6 58 59 107 

Vehicle 1
0 38 52 105 29 91 31 82 84 107 

Vehicle 2
0 51 104 33 37 90 86 107 

Vehicle 3
0 30 41 49 83 94 102 107 

Vehicle 4
0 18 14 71 67 107 

Vehicle 5
0 50 47 103 100 107 

Vehicle 6
0 19 15 16 17 68 72 70 69 107 

Vehicle 7
0 2 25 78 3 56 4 57 1 54 55 107 

Vehicle 8
0 46 12 65 10 63 99 13 66 107 

Vehicle 9
0 36 28 53 81 106 89 107 

Vehicle 10
0 9 62 8 40 93 43 61 96 107 

Vehicle 11
0 39 92 20 23 22 73 76 75 107 

Vehicle 12
0 35 88 11 26 79 64 107 

Vehicle 14
0 21 24 77 32 44 97 74 85 107 

Vehicle 16
0 34 42 95 87 48 101 27 80 107 

Vehicle used: 15
Total Distance Traveled: 1703.2145152448368
Total Penalty of Delay: 0.0
Time Elasped: 4554
Vehicle 0 with capacity 200
			Node 0
		Load 0.0
		Time 0.0
		Delay 0.0
			Membership 1
			Time Window [0, 240]
			Load at node 0
			Service time at node 0
			Location (40, 50)
	Distance between 14.7648230602334
			Node 45
		Load 9.0
		Time 42.0
		Delay 0.0
			Membership 1
			Time Window [42, 72]
			Load at node 9
			Service time at node 10
			Location (27, 43)
	Distance between 19.235384061671343
			Node 7
		Load 49.0
		Time 71.23538406167134
		Delay 0.0
			Membership 1
			Time Window [59, 89]
			Load at node 40
			Service time at node 10
			Location (8, 40)
	Distance between 6.0
			Node 60
		Load 9.0
		Time 87.23538406167134
		Delay 0.0
			Membership 1
			Time Window [58, 88]
			Load at node -40
			Service time at node 10
			Location (2, 40)
	Distance between 2.0
			Node 98
		Load 0.0
		Time 99.23538406167134
		Delay 0.0
			Membership 1
			Time Window [72, 102]
			Load at node -9
			Service time at node 10
			Location (0, 40)
	Distance between 11.180339887498949
			Node 5
		Load 20.0
		Time 120.41572394917029
		Delay 0.0
			Membership 1
			Time Window [91, 121]
			Load at node 20
			Service time at node 10
			Location (10, 35)
	Distance between 5.0
			Node 6
		Load 50.0
		Time 135.41572394917029
		Delay 0.0
			Membership 1
			Time Window [119, 149]
			Load at node 30
			Service time at node 10
			Location (10, 40)
	Distance between 7.0710678118654755
			Node 58
		Load 30.0
		Time 152.48679176103576
		Delay 0.0
			Membership 1
			Time Window [142, 172]
			Load at node -20
			Service time at node 10
			Location (5, 35)
	Distance between 11.180339887498949
			Node 59
		Load 0.0
		Time 173.6671316485347
		Delay 0.0
			Membership 1
			Time Window [149, 179]
			Load at node -30
			Service time at node 10
			Location (0, 45)
	Distance between 40.311288741492746
			Node 107
		Load 0.0
		Time 223.97842039002745
		Delay 0.0
			Membership 1
			Time Window [0, 240]
			Load at node 0
			Service time at node 0
			Location (40, 50)

Vehicle 1 with capacity 200
			Node 0
		Load 0.0
		Time 0.0
		Delay 0.0
			Membership 1
			Time Window [0, 240]
			Load at node 0
			Service time at node 0
			Location (40, 50)
	Distance between 9.219544457292887
			Node 38
		Load 27.0
		Time 41.0
		Delay 0.0
			Membership 1
			Time Window [41, 71]
			Load at node 27
			Service time at node 10
			Location (31, 52)
	Distance between 5.0
			Node 52
		Load 36.0
		Time 56.0
		Delay 0.0
			Membership 1
			Time Window [46, 76]
			Load at node 9
			Service time at node 10
			Location (26, 52)
	Distance between 6.324555320336759
			Node 105
		Load 27.0
		Time 72.32455532033676
		Delay 0.0
			Membership 1
			Time Window [67, 97]
			Load at node -9
			Service time at node 10
			Location (24, 58)
	Distance between 8.94427190999916
			Node 29
		Load 32.0
		Time 91.26882723033592
		Delay 0.0
			Membership 1
			Time Window [91, 121]
			Load at node 5
			Service time at node 10
			Location (20, 50)
	Distance between 13.416407864998739
			Node 91
		Load 5.0
		Time 114.68523509533466
		Delay 0.0
			Membership 1
			Time Window [90, 120]
			Load at node -27
			Service time at node 10
			Location (8, 56)
	Distance between 8.06225774829855
			Node 31
		Load 22.0
		Time 155.0
		Delay 0.0
			Membership 1
			Time Window [155, 185]
			Load at node 17
			Service time at node 10
			Location (15, 60)
	Distance between 17.46424919657298
			Node 82
		Load 17.0
		Time 182.46424919657298
		Delay 0.0
			Membership 1
			Time Window [180, 210]
			Load at node -5
			Service time at node 10
			Location (31, 67)
	Distance between 4.47213595499958
			Node 84
		Load 0.0
		Time 196.93638515157255
		Delay 0.0
			Membership 1
			Time Window [180, 210]
			Load at node -17
			Service time at node 10
			Location (35, 69)
	Distance between 19.6468827043885
			Node 107
		Load 0.0
		Time 226.58326785596105
		Delay 0.0
			Membership 1
			Time Window [0, 240]
			Load at node 0
			Service time at node 0
			Location (40, 50)

Vehicle 2 with capacity 200
			Node 0
		Load 0.0
		Time 0.0
		Delay 0.0
			Membership 1
			Time Window [0, 240]
			Load at node 0
			Service time at node 0
			Location (40, 50)
	Distance between 14.7648230602334
			Node 51
		Load 14.0
		Time 14.7648230602334
		Delay 0.0
			Membership 1
			Time Window [14, 44]
			Load at node 14
			Service time at node 10
			Location (53, 43)
	Distance between 6.708203932499369
			Node 104
		Load 0.0
		Time 34.0
		Delay 0.0
			Membership 1
			Time Window [34, 64]
			Load at node -14
			Service time at node 10
			Location (56, 37)
	Distance between 9.219544457292887
			Node 33
		Load 3.0
		Time 53.21954445729288
		Delay 0.0
			Membership 1
			Time Window [52, 82]
			Load at node 3
			Service time at node 10
			Location (65, 35)
	Distance between 7.0710678118654755
			Node 37
		Load 12.0
		Time 70.29061226915836
		Delay 0.0
			Membership 1
			Time Window [70, 100]
			Load at node 9
			Service time at node 10
			Location (64, 42)
	Distance between 13.038404810405298
			Node 90
		Load 3.0
		Time 93.32901707956366
		Delay 0.0
			Membership 1
			Time Window [65, 95]
			Load at node -9
			Service time at node 10
			Location (65, 55)
	Distance between 10.63014581273465
			Node 86
		Load 0.0
		Time 113.95916289229831
		Delay 0.0
			Membership 1
			Time Window [95, 125]
			Load at node -3
			Service time at node 10
			Location (57, 48)
	Distance between 17.11724276862369
			Node 107
		Load 0.0
		Time 141.076405660922
		Delay 0.0
			Membership 1
			Time Window [0, 240]
			Load at node 0
			Service time at node 0
			Location (40, 50)

Vehicle 3 with capacity 200
			Node 0
		Load 0.0
		Time 0.0
		Delay 0.0
			Membership 1
			Time Window [0, 240]
			Load at node 0
			Service time at node 0
			Location (40, 50)
	Distance between 42.42640687119285
			Node 30
		Load 19.0
		Time 42.42640687119285
		Delay 0.0
			Membership 1
			Time Window [42, 72]
			Load at node 19
			Service time at node 10
			Location (10, 20)
	Distance between 15.811388300841896
			Node 41
		Load 35.0
		Time 74.0
		Delay 0.0
			Membership 1
			Time Window [74, 104]
			Load at node 16
			Service time at node 10
			Location (5, 5)
	Distance between 20.248456731316587
			Node 49
		Load 48.0
		Time 104.2484567313166
		Delay 0.0
			Membership 1
			Time Window [90, 120]
			Load at node 13
			Service time at node 10
			Location (12, 24)
	Distance between 10.0
			Node 83
		Load 29.0
		Time 124.2484567313166
		Delay 0.0
			Membership 1
			Time Window [120, 150]
			Load at node -19
			Service time at node 10
			Location (4, 18)
	Distance between 13.601470508735444
			Node 94
		Load 13.0
		Time 152.0
		Delay 0.0
			Membership 1
			Time Window [152, 182]
			Load at node -16
			Service time at node 10
			Location (15, 10)
	Distance between 10.63014581273465
			Node 102
		Load 0.0
		Time 172.63014581273464
		Delay 0.0
			Membership 1
			Time Window [150, 180]
			Load at node -13
			Service time at node 10
			Location (23, 3)
	Distance between 49.9799959983992
			Node 107
		Load 0.0
		Time 232.61014181113384
		Delay 0.0
			Membership 1
			Time Window [0, 240]
			Load at node 0
			Service time at node 0
			Location (40, 50)

Vehicle 4 with capacity 200
			Node 0
		Load 0.0
		Time 0.0
		Delay 0.0
			Membership 1
			Time Window [0, 240]
			Load at node 0
			Service time at node 0
			Location (40, 50)
	Distance between 50.28916384272063
			Node 18
		Load 20.0
		Time 61.0
		Delay 0.0
			Membership 1
			Time Window [61, 91]
			Load at node 20
			Service time at node 10
			Location (88, 35)
	Distance between 7.0
			Node 14
		Load 40.0
		Time 78.0
		Delay 0.0
			Membership 1
			Time Window [62, 92]
			Load at node 20
			Service time at node 10
			Location (95, 35)
	Distance between 41.036569057366385
			Node 71
		Load 20.0
		Time 144.0
		Delay 0.0
			Membership 1
			Time Window [144, 174]
			Load at node -20
			Service time at node 10
			Location (67, 5)
	Distance between 41.14608122288197
			Node 67
		Load 0.0
		Time 195.14608122288197
		Delay 0.0
			Membership 1
			Time Window [167, 197]
			Load at node -20
			Service time at node 10
			Location (49, 42)
	Distance between 12.041594578792296
			Node 107
		Load 0.0
		Time 217.18767580167426
		Delay 0.0
			Membership 1
			Time Window [0, 240]
			Load at node 0
			Service time at node 0
			Location (40, 50)

Vehicle 5 with capacity 200
			Node 0
		Load 0.0
		Time 0.0
		Delay 0.0
			Membership 1
			Time Window [0, 240]
			Load at node 0
			Service time at node 0
			Location (40, 50)
	Distance between 4.242640687119285
			Node 50
		Load 6.0
		Time 86.0
		Delay 0.0
			Membership 1
			Time Window [86, 116]
			Load at node 6
			Service time at node 10
			Location (37, 47)
	Distance between 26.90724809414742
			Node 47
		Load 24.0
		Time 122.90724809414742
		Delay 0.0
			Membership 1
			Time Window [96, 126]
			Load at node 18
			Service time at node 10
			Location (57, 29)
	Distance between 9.219544457292887
			Node 103
		Load 18.0
		Time 142.1267925514403
		Delay 0.0
			Membership 1
			Time Window [130, 160]
			Load at node -6
			Service time at node 10
			Location (50, 35)
	Distance between 9.219544457292887
			Node 100
		Load 0.0
		Time 161.3463370087332
		Delay 0.0
			Membership 1
			Time Window [133, 163]
			Load at node -18
			Service time at node 10
			Location (41, 37)
	Distance between 13.038404810405298
			Node 107
		Load 0.0
		Time 184.3847418191385
		Delay 0.0
			Membership 1
			Time Window [0, 240]
			Load at node 0
			Service time at node 0
			Location (40, 50)

Vehicle 6 with capacity 200
			Node 0
		Load 0.0
		Time 0.0
		Delay 0.0
			Membership 1
			Time Window [0, 240]
			Load at node 0
			Service time at node 0
			Location (40, 50)
	Distance between 51.478150704935004
			Node 19
		Load 10.0
		Time 51.478150704935004
		Delay 0.0
			Membership 1
			Time Window [51, 81]
			Load at node 10
			Service time at node 10
			Location (85, 25)
	Distance between 8.602325267042627
			Node 15
		Load 20.0
		Time 70.08047597197763
		Delay 0.0
			Membership 1
			Time Window [62, 92]
			Load at node 10
			Service time at node 10
			Location (92, 30)
	Distance between 5.385164807134504
			Node 16
		Load 30.0
		Time 85.46564077911214
		Delay 0.0
			Membership 1
			Time Window [67, 97]
			Load at node 10
			Service time at node 10
			Location (90, 35)
	Distance between 5.385164807134504
			Node 17
		Load 40.0
		Time 100.85080558624664
		Delay 0.0
			Membership 1
			Time Window [74, 104]
			Load at node 10
			Service time at node 10
			Location (88, 30)
	Distance between 7.0
			Node 68
		Load 30.0
		Time 117.85080558624664
		Delay 0.0
			Membership 1
			Time Window [115, 145]
			Load at node -10
			Service time at node 10
			Location (95, 30)
	Distance between 11.180339887498949
			Node 72
		Load 20.0
		Time 139.0311454737456
		Delay 0.0
			Membership 1
			Time Window [111, 141]
			Load at node -10
			Service time at node 10
			Location (85, 35)
	Distance between 5.385164807134504
			Node 70
		Load 10.0
		Time 154.4163102808801
		Delay 0.0
			Membership 1
			Time Window [131, 161]
			Load at node -10
			Service time at node 10
			Location (87, 30)
	Distance between 34.058772731852805
			Node 69
		Load 0.0
		Time 198.4750830127329
		Delay 0.0
			Membership 1
			Time Window [178, 208]
			Load at node -10
			Service time at node 10
			Location (61, 52)
	Distance between 21.095023109728988
			Node 107
		Load 0.0
		Time 229.5701061224619
		Delay 0.0
			Membership 1
			Time Window [0, 240]
			Load at node 0
			Service time at node 0
			Location (40, 50)

Vehicle 7 with capacity 200
			Node 0
		Load 0.0
		Time 0.0
		Delay 0.0
			Membership 1
			Time Window [0, 240]
			Load at node 0
			Service time at node 0
			Location (40, 50)
	Distance between 40.311288741492746
			Node 2
		Load 20.0
		Time 41.0
		Delay 0.0
			Membership 1
			Time Window [41, 71]
			Load at node 20
			Service time at node 10
			Location (20, 85)
	Distance between 3.0
			Node 25
		Load 30.0
		Time 54.0
		Delay 0.0
			Membership 1
			Time Window [37, 67]
			Load at node 10
			Service time at node 10
			Location (20, 82)
	Distance between 7.280109889280518
			Node 78
		Load 20.0
		Time 71.28010988928052
		Delay 0.0
			Membership 1
			Time Window [50, 80]
			Load at node -10
			Service time at node 10
			Location (22, 75)
	Distance between 7.0
			Node 3
		Load 40.0
		Time 88.28010988928052
		Delay 0.0
			Membership 1
			Time Window [79, 109]
			Load at node 20
			Service time at node 10
			Location (15, 75)
	Distance between 3.0
			Node 56
		Load 20.0
		Time 101.28010988928052
		Delay 0.0
			Membership 1
			Time Window [95, 125]
			Load at node -20
			Service time at node 10
			Location (18, 75)
	Distance between 5.830951894845301
			Node 4
		Load 30.0
		Time 117.11106178412582
		Delay 0.0
			Membership 1
			Time Window [91, 121]
			Load at node 10
			Service time at node 10
			Location (15, 80)
	Distance between 8.602325267042627
			Node 57
		Load 20.0
		Time 135.71338705116844
		Delay 0.0
			Membership 1
			Time Window [109, 139]
			Load at node -10
			Service time at node 10
			Location (22, 85)
	Distance between 3.0
			Node 1
		Load 40.0
		Time 148.71338705116844
		Delay 0.0
			Membership 1
			Time Window [145, 175]
			Load at node 20
			Service time at node 0
			Location (25, 85)
	Distance between 0.0
			Node 54
		Load 20.0
		Time 148.71338705116844
		Delay 0.0
			Membership 1
			Time Window [145, 175]
			Load at node -20
			Service time at node 10
			Location (25, 85)
	Distance between 7.0710678118654755
			Node 55
		Load 0.0
		Time 165.78445486303391
		Delay 0.0
			Membership 1
			Time Window [141, 171]
			Load at node -20
			Service time at node 10
			Location (20, 80)
	Distance between 36.05551275463989
			Node 107
		Load 0.0
		Time 211.8399676176738
		Delay 0.0
			Membership 1
			Time Window [0, 240]
			Load at node 0
			Service time at node 0
			Location (40, 50)

Vehicle 8 with capacity 200
			Node 0
		Load 0.0
		Time 0.0
		Delay 0.0
			Membership 1
			Time Window [0, 240]
			Load at node 0
			Service time at node 0
			Location (40, 50)
	Distance between 19.235384061671343
			Node 46
		Load 14.0
		Time 35.0
		Delay 0.0
			Membership 1
			Time Window [35, 65]
			Load at node 14
			Service time at node 10
			Location (37, 31)
	Distance between 26.019223662515376
			Node 12
		Load 44.0
		Time 71.01922366251537
		Delay 0.0
			Membership 1
			Time Window [65, 95]
			Load at node 30
			Service time at node 10
			Location (38, 5)
	Distance between 2.0
			Node 65
		Load 14.0
		Time 83.01922366251537
		Delay 0.0
			Membership 1
			Time Window [67, 97]
			Load at node -30
			Service time at node 10
			Location (40, 5)
	Distance between 5.385164807134504
			Node 10
		Load 54.0
		Time 98.40438846964987
		Delay 0.0
			Membership 1
			Time Window [72, 102]
			Load at node 40
			Service time at node 10
			Location (42, 10)
	Distance between 5.385164807134504
			Node 63
		Load 14.0
		Time 113.78955327678437
		Delay 0.0
			Membership 1
			Time Window [87, 117]
			Load at node -40
			Service time at node 10
			Location (44, 5)
	Distance between 2.0
			Node 99
		Load 0.0
		Time 151.0
		Delay 0.0
			Membership 1
			Time Window [151, 181]
			Load at node -14
			Service time at node 10
			Location (42, 5)
	Distance between 7.0
			Node 13
		Load 20.0
		Time 168.0
		Delay 0.0
			Membership 1
			Time Window [154, 184]
			Load at node 20
			Service time at node 0
			Location (35, 5)
	Distance between 0.0
			Node 66
		Load 0.0
		Time 168.0
		Delay 0.0
			Membership 1
			Time Window [154, 184]
			Load at node -20
			Service time at node 10
			Location (35, 5)
	Distance between 45.27692569068709
			Node 107
		Load 0.0
		Time 223.27692569068708
		Delay 0.0
			Membership 1
			Time Window [0, 240]
			Load at node 0
			Service time at node 0
			Location (40, 50)

Vehicle 9 with capacity 200
			Node 0
		Load 0.0
		Time 0.0
		Delay 0.0
			Membership 1
			Time Window [0, 240]
			Load at node 0
			Service time at node 0
			Location (40, 50)
	Distance between 11.180339887498949
			Node 36
		Load 16.0
		Time 11.180339887498949
		Delay 0.0
			Membership 1
			Time Window [11, 41]
			Load at node 16
			Service time at node 10
			Location (35, 40)
	Distance between 14.142135623730951
			Node 28
		Load 19.0
		Time 52.0
		Delay 0.0
			Membership 1
			Time Window [52, 82]
			Load at node 3
			Service time at node 10
			Location (25, 30)
	Distance between 5.0990195135927845
			Node 53
		Load 34.0
		Time 77.0
		Delay 0.0
			Membership 1
			Time Window [77, 107]
			Load at node 15
			Service time at node 10
			Location (26, 35)
	Distance between 10.770329614269007
			Node 81
		Load 31.0
		Time 97.770329614269
		Delay 0.0
			Membership 1
			Time Window [96, 126]
			Load at node -3
			Service time at node 10
			Location (30, 25)
	Distance between 9.055385138137417
			Node 106
		Load 16.0
		Time 116.82571475240641
		Delay 0.0
			Membership 1
			Time Window [87, 117]
			Load at node -15
			Service time at node 10
			Location (21, 24)
	Distance between 4.123105625617661
			Node 89
		Load 0.0
		Time 141.0
		Delay 0.0
			Membership 1
			Time Window [141, 171]
			Load at node -16
			Service time at node 10
			Location (20, 20)
	Distance between 36.05551275463989
			Node 107
		Load 0.0
		Time 187.0555127546399
		Delay 0.0
			Membership 1
			Time Window [0, 240]
			Load at node 0
			Service time at node 0
			Location (40, 50)

Vehicle 10 with capacity 200
			Node 0
		Load 0.0
		Time 0.0
		Delay 0.0
			Membership 1
			Time Window [0, 240]
			Load at node 0
			Service time at node 0
			Location (40, 50)
	Distance between 35.35533905932738
			Node 9
		Load 10.0
		Time 35.35533905932738
		Delay 0.0
			Membership 1
			Time Window [35, 65]
			Load at node 10
			Service time at node 10
			Location (5, 45)
	Distance between 3.0
			Node 62
		Load 0.0
		Time 48.35533905932738
		Delay 0.0
			Membership 1
			Time Window [45, 75]
			Load at node -10
			Service time at node 10
			Location (2, 45)
	Distance between 6.0
			Node 8
		Load 20.0
		Time 64.35533905932738
		Delay 0.0
			Membership 1
			Time Window [64, 94]
			Load at node 20
			Service time at node 10
			Location (8, 45)
	Distance between 16.15549442140351
			Node 40
		Load 25.0
		Time 90.5108334807309
		Delay 0.0
			Membership 1
			Time Window [77, 107]
			Load at node 5
			Service time at node 0
			Location (2, 60)
	Distance between 0.0
			Node 93
		Load 20.0
		Time 90.5108334807309
		Delay 0.0
			Membership 1
			Time Window [77, 107]
			Load at node -5
			Service time at node 10
			Location (2, 60)
	Distance between 8.94427190999916
			Node 43
		Load 50.0
		Time 109.45510539073005
		Delay 0.0
			Membership 1
			Time Window [89, 119]
			Load at node 30
			Service time at node 10
			Location (6, 68)
	Distance between 16.97056274847714
			Node 61
		Load 30.0
		Time 136.4256681392072
		Delay 0.0
			Membership 1
			Time Window [113, 143]
			Load at node -20
			Service time at node 10
			Location (18, 80)
	Distance between 23.323807579381203
			Node 96
		Load 0.0
		Time 169.7494757185884
		Delay 0.0
			Membership 1
			Time Window [140, 170]
			Load at node -30
			Service time at node 10
			Location (30, 60)
	Distance between 14.142135623730951
			Node 107
		Load 0.0
		Time 193.89161134231935
		Delay 0.0
			Membership 1
			Time Window [0, 240]
			Load at node 0
			Service time at node 0
			Location (40, 50)

Vehicle 11 with capacity 200
			Node 0
		Load 0.0
		Time 0.0
		Delay 0.0
			Membership 1
			Time Window [0, 240]
			Load at node 0
			Service time at node 0
			Location (40, 50)
	Distance between 27.459060435491963
			Node 39
		Load 8.0
		Time 30.0
		Delay 0.0
			Membership 1
			Time Window [30, 60]
			Load at node 8
			Service time at node 10
			Location (63, 65)
	Distance between 20.09975124224178
			Node 92
		Load 0.0
		Time 60.09975124224178
		Delay 0.0
			Membership 1
			Time Window [43, 73]
			Load at node -8
			Service time at node 10
			Location (65, 85)
	Distance between 5.830951894845301
			Node 20
		Load 30.0
		Time 75.93070313708708
		Delay 0.0
			Membership 1
			Time Window [75, 105]
			Load at node 30
			Service time at node 10
			Location (62, 80)
	Distance between 6.4031242374328485
			Node 23
		Load 50.0
		Time 92.33382737451993
		Delay 0.0
			Membership 1
			Time Window [92, 122]
			Load at node 20
			Service time at node 10
			Location (58, 75)
	Distance between 10.198039027185569
			Node 22
		Load 80.0
		Time 112.5318664017055
		Delay 0.0
			Membership 1
			Time Window [85, 115]
			Load at node 30
			Service time at node 10
			Location (60, 85)
	Distance between 5.0
			Node 73
		Load 50.0
		Time 128.0
		Delay 0.0
			Membership 1
			Time Window [128, 158]
			Load at node -30
			Service time at node 10
			Location (55, 85)
	Distance between 10.44030650891055
			Node 76
		Load 30.0
		Time 148.44030650891054
		Delay 0.0
			Membership 1
			Time Window [124, 154]
			Load at node -20
			Service time at node 10
			Location (65, 82)
	Distance between 3.605551275463989
			Node 75
		Load 0.0
		Time 162.04585778437453
		Delay 0.0
			Membership 1
			Time Window [139, 169]
			Load at node -30
			Service time at node 10
			Location (67, 85)
	Distance between 44.204072210600685
			Node 107
		Load 0.0
		Time 216.24992999497522
		Delay 0.0
			Membership 1
			Time Window [0, 240]
			Load at node 0
			Service time at node 0
			Location (40, 50)

Vehicle 12 with capacity 200
			Node 0
		Load 0.0
		Time 0.0
		Delay 0.0
			Membership 1
			Time Window [0, 240]
			Load at node 0
			Service time at node 0
			Location (40, 50)
	Distance between 20.615528128088304
			Node 35
		Load 17.0
		Time 53.0
		Delay 0.0
			Membership 1
			Time Window [53, 83]
			Load at node 17
			Service time at node 0
			Location (45, 30)
	Distance between 0.0
			Node 88
		Load 0.0
		Time 53.0
		Delay 0.0
			Membership 1
			Time Window [53, 83]
			Load at node -17
			Service time at node 10
			Location (45, 30)
	Distance between 15.811388300841896
			Node 11
		Load 40.0
		Time 92.0
		Delay 0.0
			Membership 1
			Time Window [92, 122]
			Load at node 40
			Service time at node 10
			Location (40, 15)
	Distance between 3.605551275463989
			Node 26
		Load 50.0
		Time 105.605551275464
		Delay 0.0
			Membership 1
			Time Window [104, 134]
			Load at node 10
			Service time at node 10
			Location (42, 12)
	Distance between 3.0
			Node 79
		Load 40.0
		Time 122.0
		Delay 0.0
			Membership 1
			Time Window [122, 152]
			Load at node -10
			Service time at node 10
			Location (42, 15)
	Distance between 4.0
			Node 64
		Load 0.0
		Time 148.0
		Delay 0.0
			Membership 1
			Time Window [148, 178]
			Load at node -40
			Service time at node 10
			Location (38, 15)
	Distance between 35.05709628591621
			Node 107
		Load 0.0
		Time 193.0570962859162
		Delay 0.0
			Membership 1
			Time Window [0, 240]
			Load at node 0
			Service time at node 0
			Location (40, 50)

Vehicle 14 with capacity 200
			Node 0
		Load 0.0
		Time 0.0
		Delay 0.0
			Membership 1
			Time Window [0, 240]
			Load at node 0
			Service time at node 0
			Location (40, 50)
	Distance between 36.05551275463989
			Node 21
		Load 10.0
		Time 37.0
		Delay 0.0
			Membership 1
			Time Window [37, 67]
			Load at node 10
			Service time at node 10
			Location (60, 80)
	Distance between 5.0
			Node 24
		Load 20.0
		Time 52.0
		Delay 0.0
			Membership 1
			Time Window [33, 63]
			Load at node 10
			Service time at node 10
			Location (55, 80)
	Distance between 2.0
			Node 77
		Load 10.0
		Time 64.0
		Delay 0.0
			Membership 1
			Time Window [64, 94]
			Load at node -10
			Service time at node 10
			Location (55, 82)
	Distance between 19.72308292331602
			Node 32
		Load 19.0
		Time 93.72308292331601
		Delay 0.0
			Membership 1
			Time Window [66, 96]
			Load at node 9
			Service time at node 10
			Location (45, 65)
	Distance between 8.06225774829855
			Node 44
		Load 29.0
		Time 111.78534067161456
		Delay 0.0
			Membership 1
			Time Window [86, 116]
			Load at node 10
			Service time at node 10
			Location (49, 58)
	Distance between 7.211102550927978
			Node 97
		Load 19.0
		Time 132.0
		Delay 0.0
			Membership 1
			Time Window [132, 162]
			Load at node -10
			Service time at node 10
			Location (55, 54)
	Distance between 6.0
			Node 74
		Load 9.0
		Time 148.0
		Delay 0.0
			Membership 1
			Time Window [139, 169]
			Load at node -10
			Service time at node 10
			Location (55, 60)
	Distance between 15.0
			Node 85
		Load 0.0
		Time 173.0
		Delay 0.0
			Membership 1
			Time Window [144, 174]
			Load at node -9
			Service time at node 10
			Location (40, 60)
	Distance between 10.0
			Node 107
		Load 0.0
		Time 193.0
		Delay 0.0
			Membership 1
			Time Window [0, 240]
			Load at node 0
			Service time at node 0
			Location (40, 50)

Vehicle 16 with capacity 200
			Node 0
		Load 0.0
		Time 0.0
		Delay 0.0
			Membership 1
			Time Window [0, 240]
			Load at node 0
			Service time at node 0
			Location (40, 50)
	Distance between 39.05124837953327
			Node 34
		Load 6.0
		Time 39.05124837953327
		Delay 0.0
			Membership 1
			Time Window [39, 69]
			Load at node 6
			Service time at node 10
			Location (65, 20)
	Distance between 9.433981132056603
			Node 42
		Load 37.0
		Time 75.0
		Delay 0.0
			Membership 1
			Time Window [75, 105]
			Load at node 31
			Service time at node 0
			Location (60, 12)
	Distance between 0.0
			Node 95
		Load 6.0
		Time 75.0
		Delay 0.0
			Membership 1
			Time Window [75, 105]
			Load at node -31
			Service time at node 10
			Location (60, 12)
	Distance between 9.433981132056603
			Node 87
		Load 0.0
		Time 94.4339811320566
		Delay 0.0
			Membership 1
			Time Window [83, 113]
			Load at node -6
			Service time at node 10
			Location (55, 20)
	Distance between 8.54400374531753
			Node 48
		Load 2.0
		Time 112.97798487737413
		Delay 0.0
			Membership 1
			Time Window [87, 117]
			Load at node 2
			Service time at node 0
			Location (63, 23)
	Distance between 0.0
			Node 101
		Load 0.0
		Time 112.97798487737413
		Delay 0.0
			Membership 1
			Time Window [87, 117]
			Load at node -2
			Service time at node 10
			Location (63, 23)
	Distance between 15.0
			Node 27
		Load 30.0
		Time 137.97798487737413
		Delay 0.0
			Membership 1
			Time Window [116, 146]
			Load at node 30
			Service time at node 10
			Location (72, 35)
	Distance between 27.730849247724095
			Node 80
		Load 0.0
		Time 192.0
		Delay 0.0
			Membership 1
			Time Window [192, 222]
			Load at node -30
			Service time at node 10
			Location (47, 47)
	Distance between 7.615773105863909
			Node 107
		Load 0.0
		Time 209.61577310586392
		Delay 0.0
			Membership 1
			Time Window [0, 240]
			Load at node 0
			Service time at node 0
			Location (40, 50)

